NAME : ts225.181477.tour
COMMENT : Cost = 36370_181477
COMMENT : Found by LKH [Keld Helsgaun] Thu Nov 16 17:47:03 2017
TYPE : TOUR
DIMENSION : 229
TOUR_SECTION
1
2
3
4
5
6
7
8
9
10
11
12
13
14
15
16
17
18
19
20
21
22
23
24
25
146
147
148
149
150
50
171
172
173
174
175
49
48
47
46
45
44
145
144
143
142
141
136
137
138
139
132
131
227
29
56
57
181
182
183
184
185
83
84
85
86
87
211
212
213
214
215
113
114
115
116
117
118
220
219
218
217
216
94
93
92
91
90
89
190
189
188
187
186
62
61
60
59
158
157
156
32
31
228
135
33
34
35
36
162
163
164
165
63
64
65
66
67
68
69
191
192
193
194
195
95
96
97
98
99
200
199
198
197
196
75
74
73
72
71
70
170
169
168
167
166
43
42
41
40
39
38
140
133
226
126
127
128
129
130
26
151
152
153
154
155
51
176
177
178
179
180
76
201
202
203
204
205
101
102
103
104
105
106
107
108
109
110
111
112
210
209
208
207
206
82
81
80
79
78
77
52
53
54
55
28
27
229
30
159
160
58
88
119
120
121
122
123
124
125
225
224
223
222
221
100
161
37
134
-1
EOF
